0 0 101 
1 0 11 
2 0 111 
3 0 121 
4 0 131 
5 0 141 
6 0 151 
7 0 154 
8 0 161 
9 0 171 
10 0 181 
11 0 191 
12 0 201 
13 0 21 
14 0 31 
15 0 38 
16 0 41 
17 0 48 
18 0 51 
19 0 61 
20 0 71 
21 0 81 
22 0 91 
23 2 123 
24 2 124 
25 2 128 
26 2 129 
27 2 13 
28 2 132 
29 2 133 
30 2 134 
31 2 139 
32 2 141 
33 2 144 
34 2 15 
35 2 155 
36 2 157 
37 2 159 
38 2 161 
39 2 164 
40 2 17 
41 2 178 
42 2 180 
43 2 181 
44 2 183 
45 2 184 
46 2 185 
47 2 187 
48 2 188 
49 2 189 
50 2 19 
51 2 191 
52 2 193 
53 2 194 
54 2 195 
55 2 197 
56 2 199 
57 2 20 
58 2 200 
59 2 23 
60 2 25 
61 2 28 
62 2 29 
63 2 31 
64 2 32 
65 2 35 
66 2 37 
67 2 39 
68 2 42 
69 2 44 
70 2 47 
71 2 70 
72 2 71 
73 2 81 
74 2 82 
75 2 84 
76 2 96 
77 2 97 
78 2 98 
79 2 99 
80 3 126 
81 3 85 
82 5 156 
83 5 160 
84 5 168 
85 5 171 
86 5 175 
87 5 180 
88 5 182 
89 5 19 
90 5 192 
91 5 201 
92 5 203 
93 5 205 
94 5 21 
95 5 212 
96 5 24 
97 5 28 
98 5 32 
99 5 38 
100 5 43 
101 5 47 
102 5 8 
103 8 197 
104 8 29 
105 9 115 
106 9 154 
107 9 17 
108 9 178 
109 9 197 
110 9 22 
111 9 29 
112 9 32 
113 9 36 
114 9 41 
115 10 143 
116 10 154 
117 10 17 
118 10 178 
119 10 181 
120 10 191 
121 10 198 
122 10 20 
123 10 200 
124 10 22 
125 10 30 
126 10 34 
127 10 36 
128 10 41 
129 10 46 
130 11 115 
131 11 143 
132 11 154 
133 11 166 
134 11 169 
135 11 17 
136 11 178 
137 11 181 
138 11 191 
139 11 197 
140 11 20 
141 11 200 
142 11 202 
143 11 22 
144 11 29 
145 11 36 
146 11 41 
147 11 46 
148 11 49 
149 11 9 
150 12 5 
151 15 182 
152 15 192 
153 15 199 
154 15 201 
155 15 203 
156 15 205 
157 15 21 
158 15 31 
159 15 35 
160 15 47 
161 15 8 
162 17 123 
163 17 129 
164 17 132 
165 17 139 
166 17 141 
167 17 164 
168 17 184 
169 17 185 
170 17 188 
171 17 189 
172 17 194 
173 17 195 
174 17 70 
175 17 96 
176 17 98 
177 18 127 
178 18 133 
179 18 69 
180 18 80 
181 18 86 
182 18 99 
183 25 102 
184 25 103 
185 25 104 
186 25 110 
187 25 113 
188 25 115 
189 25 117 
190 25 119 
191 25 122 
192 25 130 
193 25 16 
194 25 18 
195 25 181 
196 25 184 
197 25 186 
198 25 188 
199 25 190 
200 25 192 
201 25 194 
202 25 196 
203 25 197 
204 25 24 
205 25 28 
206 25 48 
207 25 51 
208 25 52 
209 25 55 
210 25 56 
211 25 60 
212 25 61 
213 25 64 
214 25 65 
215 25 66 
216 25 71 
217 25 80 
218 25 81 
219 25 85 
220 25 86 
221 25 89 
222 25 90 
223 25 91 
224 25 96 
225 26 58 
226 26 83 
227 28 109 
228 28 11 
229 28 111 
230 28 114 
231 28 118 
232 28 131 
233 28 136 
234 28 144 
235 28 152 
236 28 160 
237 28 168 
238 28 176 
239 28 182 
240 28 185 
241 28 189 
242 28 193 
243 28 198 
244 28 201 
245 28 205 
246 28 21 
247 28 24 
248 28 26 
249 28 29 
250 28 34 
251 28 42 
252 28 48 
253 28 50 
254 28 7 
255 31 132 
256 31 138 
257 31 146 
258 31 154 
259 31 162 
260 31 170 
261 31 178 
262 31 194 
263 31 30 
264 31 36 
265 31 44 
266 32 112 
267 32 132 
268 32 138 
269 32 146 
270 32 154 
271 32 162 
272 32 170 
273 32 178 
274 32 183 
275 32 194 
276 32 30 
277 32 36 
278 32 44 
279 33 110 
280 33 112 
281 33 121 
282 33 130 
283 33 132 
284 33 138 
285 33 146 
286 33 154 
287 33 162 
288 33 170 
289 33 178 
290 33 181 
291 33 183 
292 33 192 
293 33 195 
294 33 197 
295 33 23 
296 33 28 
297 33 30 
298 33 36 
299 33 44 
300 33 47 
301 33 73 
302 34 110 
303 34 112 
304 34 12 
305 34 121 
306 34 130 
307 34 132 
308 34 139 
309 34 147 
310 34 155 
311 34 163 
312 34 171 
313 34 179 
314 34 181 
315 34 183 
316 34 192 
317 34 194 
318 34 197 
319 34 199 
320 34 20 
321 34 23 
322 34 28 
323 34 30 
324 34 37 
325 34 45 
326 34 47 
327 34 5 
328 34 98 
329 35 106 
330 35 132 
331 35 30 
332 35 8 
333 38 0 
334 38 109 
335 38 11 
336 38 111 
337 38 131 
338 38 182 
339 38 193 
340 38 196 
341 38 198 
342 38 21 
343 38 212 
344 38 24 
345 38 26 
346 38 29 
347 38 48 
348 38 50 
349 40 103 
350 40 104 
351 40 52 
352 40 55 
353 40 61 
354 40 64 
355 40 71 
356 40 80 
357 40 86 
358 40 89 
359 40 96 
360 41 134 
361 41 136 
362 41 138 
363 41 142 
364 41 144 
365 41 146 
366 41 150 
367 41 152 
368 41 154 
369 41 158 
370 41 160 
371 41 162 
372 41 166 
373 41 168 
374 41 170 
375 41 174 
376 41 176 
377 41 178 
378 41 31 
379 41 32 
380 41 34 
381 41 35 
382 41 39 
383 41 40 
384 41 42 
385 41 44 
386 41 59 
387 41 65 
388 41 84 
389 41 90 
390 48 105 
391 48 106 
392 48 11 
393 48 110 
394 48 111 
395 48 115 
396 48 116 
397 48 12 
398 48 121 
399 48 132 
400 48 133 
401 48 137 
402 48 138 
403 48 142 
404 48 143 
405 48 148 
406 48 157 
407 48 159 
408 48 16 
409 48 161 
410 48 164 
411 48 166 
412 48 168 
413 48 17 
414 48 170 
415 48 173 
416 48 175 
417 48 177 
418 48 178 
419 48 179 
420 48 180 
421 48 183 
422 48 187 
423 48 194 
424 48 196 
425 48 20 
426 48 21 
427 48 22 
428 48 27 
429 48 29 
430 48 32 
431 48 33 
432 48 37 
433 48 38 
434 48 42 
435 48 43 
436 48 48 
437 48 57 
438 48 58 
439 48 62 
440 48 63 
441 48 67 
442 48 68 
443 48 73 
444 48 82 
445 48 83 
446 48 87 
447 48 88 
448 48 91 
449 48 92 
450 48 93 
451 48 98 
452 49 108 
453 49 135 
454 49 14 
455 49 35 
456 49 60 
457 49 85 
458 51 130 
459 51 157 
460 51 159 
461 51 161 
462 51 165 
463 51 169 
464 51 177 
465 51 183 
466 51 185 
467 51 187 
468 51 189 
469 51 199 
470 51 202 
471 51 204 
472 51 7 
473 55 163 
474 55 175 
475 56 100 
476 56 123 
477 56 150 
478 56 156 
479 56 163 
480 56 175 
481 56 182 
482 56 186 
483 56 50 
484 56 75 
485 57 129 
486 57 156 
487 57 163 
488 57 175 
489 57 182 
490 57 186 
491 57 190 
492 57 198 
493 57 201 
494 57 5 
495 61 130 
496 61 157 
497 61 159 
498 61 161 
499 61 183 
500 61 185 
501 61 187 
502 61 189 
503 61 199 
504 61 202 
505 61 204 
506 63 105 
507 63 11 
508 63 111 
509 63 121 
510 63 132 
511 63 138 
512 63 148 
513 63 17 
514 63 173 
515 63 179 
516 63 180 
517 63 20 
518 63 27 
519 63 29 
520 63 32 
521 63 38 
522 63 48 
523 63 57 
524 63 63 
525 63 73 
526 63 82 
527 63 88 
528 63 91 
529 63 98 
530 64 109 
531 64 115 
532 64 136 
533 64 142 
534 64 15 
535 64 21 
536 64 36 
537 64 42 
538 64 61 
539 64 67 
540 64 86 
541 64 92 
542 67 0 
543 71 116 
544 71 118 
545 71 151 
546 71 181 
547 71 186 
548 71 188 
549 71 189 
550 71 197 
551 71 26 
552 74 103 
553 74 106 
554 74 110 
555 74 114 
556 74 116 
557 74 118 
558 74 13 
559 74 157 
560 74 161 
561 74 167 
562 74 175 
563 74 189 
564 74 19 
565 74 192 
566 74 194 
567 74 23 
568 74 39 
569 74 45 
570 74 58 
571 74 63 
572 74 68 
573 74 74 
574 74 8 
575 74 80 
576 74 85 
577 74 91 
578 74 95 
579 74 99 
580 77 186 
581 77 5 
582 77 55 
583 78 154 
584 78 157 
585 78 16 
586 78 161 
587 78 186 
588 78 189 
589 78 19 
590 78 23 
591 78 92 
592 78 95 
593 78 99 
594 79 115 
595 79 155 
596 79 159 
597 79 17 
598 79 187 
599 79 21 
600 79 25 
601 79 93 
602 79 97 
603 80 101 
604 80 104 
605 80 115 
606 80 149 
607 80 186 
608 80 191 
609 80 203 
610 80 25 
611 80 50 
612 80 66 
613 81 111 
614 81 163 
615 81 36 
616 81 71 
617 81 82 
618 84 114 
619 84 116 
620 84 118 
621 84 13 
622 84 156 
623 84 160 
624 84 18 
625 84 188 
626 84 192 
627 84 194 
628 84 22 
629 84 39 
630 84 45 
631 84 58 
632 84 63 
633 84 74 
634 84 8 
635 84 80 
636 84 85 
637 84 91 
638 84 94 
639 84 98 
640 85 212 
641 86 151 
642 86 197 
643 87 181 
644 94 101 
645 94 103 
646 94 108 
647 94 109 
648 94 12 
649 94 132 
650 94 134 
651 94 135 
652 94 14 
653 94 146 
654 94 148 
655 94 151 
656 94 158 
657 94 166 
658 94 168 
659 94 170 
660 94 172 
661 94 174 
662 94 176 
663 94 178 
664 94 180 
665 94 186 
666 94 188 
667 94 189 
668 94 19 
669 94 192 
670 94 193 
671 94 196 
672 94 197 
673 94 20 
674 94 200 
675 94 28 
676 94 44 
677 94 64 
678 97 106 
679 97 125 
680 97 131 
681 97 135 
682 97 139 
683 97 143 
684 97 147 
685 97 164 
686 97 167 
687 97 17 
688 97 171 
689 97 175 
690 97 180 
691 97 182 
692 97 184 
693 97 189 
694 97 193 
695 97 197 
696 97 204 
697 97 206 
698 97 23 
699 97 25 
700 97 49 
701 97 51 
702 97 55 
703 97 59 
704 97 61 
705 97 64 
706 97 7 
707 97 80 
708 97 85 
709 97 91 
710 97 95 
711 100 132 
712 100 186 
713 100 77 
714 101 132 
715 101 135 
716 101 145 
717 101 165 
718 101 178 
719 101 186 
720 101 189 
721 101 193 
722 101 197 
723 101 88 
724 101 91 
725 101 95 
726 102 133 
727 102 145 
728 102 165 
729 102 178 
730 102 187 
731 102 191 
732 102 195 
733 102 199 
734 102 63 
735 102 89 
736 102 93 
737 103 105 
738 103 111 
739 103 132 
740 103 137 
741 103 145 
742 103 16 
743 103 163 
744 103 165 
745 103 178 
746 103 181 
747 103 186 
748 103 205 
749 103 22 
750 103 34 
751 103 48 
752 103 5 
753 103 53 
754 103 58 
755 103 63 
756 103 66 
757 103 8 
758 103 97 
759 104 122 
760 104 140 
761 104 201 
762 107 106 
763 107 125 
764 107 131 
765 107 134 
766 107 143 
767 107 164 
768 107 17 
769 107 182 
770 107 184 
771 107 188 
772 107 192 
773 107 196 
774 107 200 
775 107 204 
776 107 206 
777 107 23 
778 107 25 
779 107 49 
780 107 51 
781 107 59 
782 107 61 
783 107 64 
784 107 80 
785 107 85 
786 107 90 
787 107 94 
788 109 109 
789 109 151 
790 109 20 
791 109 28 
792 110 158 
793 110 44 
794 117 109 
795 117 111 
796 117 115 
797 117 117 
798 117 124 
799 117 126 
800 117 127 
801 117 130 
802 117 131 
803 117 132 
804 117 156 
805 117 158 
806 117 159 
807 117 162 
808 117 166 
809 117 167 
810 117 168 
811 117 169 
812 117 172 
813 117 173 
814 117 174 
815 117 175 
816 117 177 
817 117 18 
818 117 180 
819 117 182 
820 117 184 
821 117 185 
822 117 187 
823 117 189 
824 117 191 
825 117 192 
826 117 193 
827 117 199 
828 117 205 
829 117 27 
830 117 32 
831 117 79 
832 117 83 
833 117 88 
834 117 93 
835 118 212 
836 119 212 
837 120 10 
838 120 103 
839 120 115 
840 120 117 
841 120 121 
842 120 127 
843 120 14 
844 120 141 
845 120 146 
846 120 152 
847 120 159 
848 120 162 
849 120 164 
850 120 18 
851 120 181 
852 120 184 
853 120 186 
854 120 189 
855 120 198 
856 120 20 
857 120 200 
858 120 202 
859 120 212 
860 120 24 
861 120 30 
862 120 32 
863 120 34 
864 120 38 
865 120 43 
866 120 47 
867 120 49 
868 120 54 
869 120 59 
870 120 7 
871 120 74 
872 120 76 
873 120 83 
874 120 85 
875 120 89 
876 120 93 
877 120 95 
878 120 99 
879 121 212 
880 122 212 
881 123 124 
882 123 138 
883 123 156 
884 123 212 
885 123 35 
886 123 51 
887 124 103 
888 124 124 
889 124 127 
890 124 129 
891 124 149 
892 124 156 
893 124 159 
894 124 182 
895 124 187 
896 124 21 
897 124 212 
898 124 96 
899 124 99 
900 125 0 
901 125 101 
902 125 114 
903 125 125 
904 125 149 
905 125 157 
906 125 161 
907 125 17 
908 125 180 
909 125 182 
910 125 185 
911 125 187 
912 125 199 
913 125 21 
914 125 212 
915 125 31 
916 125 82 
917 125 88 
918 125 92 
919 125 97 
920 126 105 
921 126 114 
922 126 119 
923 126 124 
924 126 133 
925 126 149 
926 126 156 
927 126 161 
928 126 17 
929 126 180 
930 126 182 
931 126 185 
932 126 187 
933 126 192 
934 126 196 
935 126 199 
936 126 201 
937 126 21 
938 126 212 
939 126 31 
940 126 46 
941 126 5 
942 126 62 
943 126 73 
944 126 75 
945 126 8 
946 126 82 
947 126 88 
948 126 92 
949 127 149 
950 127 21 
951 127 212 
952 128 212 
953 129 212 
954 130 102 
955 130 115 
956 130 117 
957 130 126 
958 130 141 
959 130 146 
960 130 152 
961 130 158 
962 130 162 
963 130 164 
964 130 18 
965 130 181 
966 130 186 
967 130 20 
968 130 200 
969 130 202 
970 130 212 
971 130 24 
972 130 30 
973 130 32 
974 130 34 
975 130 38 
976 130 43 
977 130 47 
978 130 49 
979 130 54 
980 130 59 
981 130 74 
982 130 76 
983 130 83 
984 130 85 
985 130 89 
986 130 93 
987 130 95 
988 130 98 
989 132 205 
990 132 79 
991 133 150 
992 133 152 
993 133 153 
994 133 154 
995 133 166 
996 133 168 
997 133 169 
998 133 173 
999 133 174 
1000 133 175 
1001 133 177 
1002 133 193 
1003 133 22 
1004 133 23 
1005 133 25 
1006 133 26 
1007 133 28 
1008 133 29 
1009 140 106 
1010 140 114 
1011 140 118 
1012 140 120 
1013 140 126 
1014 140 142 
1015 140 143 
1016 140 144 
1017 140 172 
1018 140 175 
1019 140 176 
1020 140 177 
1021 140 178 
1022 140 18 
1023 140 182 
1024 140 184 
1025 140 186 
1026 140 188 
1027 140 191 
1028 140 192 
1029 140 193 
1030 140 20 
1031 140 200 
1032 140 204 
1033 140 22 
1034 140 24 
1035 140 25 
1036 140 28 
1037 140 29 
1038 140 32 
1039 140 34 
1040 140 36 
1041 140 38 
1042 140 40 
1043 140 53 
1044 140 61 
1045 140 63 
1046 140 65 
1047 140 68 
1048 140 72 
1049 140 91 
1050 143 102 
1051 143 111 
1052 143 118 
1053 143 12 
1054 143 120 
1055 143 122 
1056 143 132 
1057 143 138 
1058 143 145 
1059 143 151 
1060 143 164 
1061 143 167 
1062 143 171 
1063 143 173 
1064 143 183 
1065 143 187 
1066 143 200 
1067 143 202 
1068 143 25 
1069 143 29 
1070 143 35 
1071 143 39 
1072 143 44 
1073 143 48 
1074 143 50 
1075 143 53 
1076 143 58 
1077 143 61 
1078 143 63 
1079 143 65 
1080 143 68 
1081 143 73 
1082 143 79 
1083 143 8 
1084 143 85 
1085 143 89 
1086 143 91 
1087 143 96 
1088 146 103 
1089 146 142 
1090 146 22 
1091 147 12 
1092 147 129 
1093 147 142 
1094 147 181 
1095 147 190 
1096 147 22 
1097 147 25 
1098 147 29 
1099 147 33 
1100 147 5 
1101 147 76 
1102 147 8 
1103 148 10 
1104 148 117 
1105 148 129 
1106 148 142 
1107 148 172 
1108 148 181 
1109 148 199 
1110 148 23 
1111 148 27 
1112 148 31 
1113 148 33 
1114 148 52 
1115 148 6 
1116 148 60 
1117 148 67 
1118 148 72 
1119 148 76 
1120 148 90 
1121 149 110 
1122 149 117 
1123 149 125 
1124 149 129 
1125 149 14 
1126 149 142 
1127 149 157 
1128 149 162 
1129 149 165 
1130 149 172 
1131 149 181 
1132 149 194 
1133 149 199 
1134 149 22 
1135 149 33 
1136 149 42 
1137 149 47 
1138 149 52 
1139 149 60 
1140 149 67 
1141 149 72 
1142 149 76 
1143 149 83 
1144 149 90 
1145 150 129 
1146 150 148 
1147 150 55 
1148 150 76 
1149 150 86 
1150 150 93 
1151 153 102 
1152 153 11 
1153 153 111 
1154 153 118 
1155 153 120 
1156 153 122 
1157 153 132 
1158 153 138 
1159 153 145 
1160 153 151 
1161 153 173 
1162 153 200 
1163 153 202 
1164 153 24 
1165 153 28 
1166 153 32 
1167 153 48 
1168 153 50 
1169 153 53 
1170 153 58 
1171 153 61 
1172 153 63 
1173 153 65 
1174 153 68 
1175 153 7 
1176 153 73 
1177 153 79 
1178 153 89 
1179 153 91 
1180 153 96 
1181 155 114 
1182 155 204 
1183 156 126 
1184 156 130 
1185 156 132 
1186 156 134 
1187 156 136 
1188 156 138 
1189 156 140 
1190 156 175 
1191 156 177 
1192 156 178 
1193 156 77 
1194 156 78 
1195 156 80 
1196 156 81 
1197 163 118 
1198 163 119 
1199 163 120 
1200 163 126 
1201 163 130 
1202 163 135 
1203 163 136 
1204 163 137 
1205 163 152 
1206 163 157 
1207 163 16 
1208 163 161 
1209 163 163 
1210 163 165 
1211 163 169 
1212 163 172 
1213 163 174 
1214 163 176 
1215 163 178 
1216 163 18 
1217 163 180 
1218 163 182 
1219 163 188 
1220 163 190 
1221 163 194 
1222 163 71 
1223 163 75 
1224 163 77 
1225 163 89 
1226 163 93 
1227 166 104 
1228 166 107 
1229 166 109 
1230 166 11 
1231 166 114 
1232 166 129 
1233 166 131 
1234 166 146 
1235 166 150 
1236 166 155 
1237 166 157 
1238 166 159 
1239 166 161 
1240 166 163 
1241 166 165 
1242 166 169 
1243 166 173 
1244 166 177 
1245 166 181 
1246 166 194 
1247 166 198 
1248 166 202 
1249 166 206 
1250 166 21 
1251 166 24 
1252 166 26 
1253 166 7 
1254 166 76 
1255 166 80 
1256 166 82 
1257 166 85 
1258 166 93 
1259 166 98 
1260 170 117 
1261 170 126 
1262 170 134 
1263 170 143 
1264 170 146 
1265 170 150 
1266 170 152 
1267 170 171 
1268 170 199 
1269 170 202 
1270 170 206 
1271 170 74 
1272 171 126 
1273 171 130 
1274 171 144 
1275 171 148 
1276 171 152 
1277 171 156 
1278 171 160 
1279 171 168 
1280 171 171 
1281 171 193 
1282 171 200 
1283 171 204 
1284 171 74 
1285 171 92 
1286 172 106 
1287 172 12 
1288 172 121 
1289 172 126 
1290 172 130 
1291 172 138 
1292 172 152 
1293 172 156 
1294 172 160 
1295 172 168 
1296 172 171 
1297 172 184 
1298 172 193 
1299 172 196 
1300 172 20 
1301 172 23 
1302 172 29 
1303 172 5 
1304 172 69 
1305 172 74 
1306 172 79 
1307 172 84 
1308 172 88 
1309 172 92 
1310 173 111 
1311 173 126 
1312 173 152 
1313 173 8 
1314 173 95 
1315 176 104 
1316 176 107 
1317 176 109 
1318 176 11 
1319 176 114 
1320 176 129 
1321 176 131 
1322 176 145 
1323 176 149 
1324 176 155 
1325 176 157 
1326 176 159 
1327 176 161 
1328 176 163 
1329 176 165 
1330 176 169 
1331 176 194 
1332 176 201 
1333 176 205 
1334 176 21 
1335 176 24 
1336 176 26 
1337 176 80 
1338 176 82 
1339 176 85 
1340 176 93 
1341 176 98 
1342 177 0 
1343 177 212 
1344 178 71 
1345 179 127 
1346 179 128 
1347 179 153 
1348 179 154 
1349 179 89 
1350 186 115 
1351 186 117 
1352 186 12 
1353 186 120 
1354 186 122 
1355 186 124 
1356 186 126 
1357 186 128 
1358 186 130 
1359 186 133 
1360 186 134 
1361 186 135 
1362 186 139 
1363 186 14 
1364 186 148 
1365 186 156 
1366 186 16 
1367 186 160 
1368 186 162 
1369 186 164 
1370 186 166 
1371 186 168 
1372 186 169 
1373 186 178 
1374 186 18 
1375 186 180 
1376 186 186 
1377 186 188 
1378 186 189 
1379 186 192 
1380 186 193 
1381 186 196 
1382 186 20 
1383 186 65 
1384 186 69 
1385 186 76 
1386 186 9 
1387 189 110 
1388 189 116 
1389 189 12 
1390 189 121 
1391 189 125 
1392 189 129 
1393 189 14 
1394 189 153 
1395 189 16 
1396 189 160 
1397 189 162 
1398 189 164 
1399 189 169 
1400 189 174 
1401 189 18 
1402 189 180 
1403 189 184 
1404 189 189 
1405 189 193 
1406 189 196 
1407 189 198 
1408 189 20 
1409 189 201 
1410 189 205 
1411 189 26 
1412 189 34 
1413 189 42 
1414 189 46 
1415 189 49 
1416 189 52 
1417 189 56 
1418 189 6 
1419 189 62 
1420 189 68 
1421 189 70 
1422 189 82 
1423 189 87 
1424 189 95 
1425 192 145 
1426 192 166 
1427 192 186 
1428 192 22 
1429 192 28 
1430 192 36 
1431 193 107 
1432 193 114 
1433 193 119 
1434 193 166 
1435 193 169 
1436 193 171 
1437 193 178 
1438 193 186 
1439 193 189 
1440 193 193 
1441 193 22 
1442 193 28 
1443 193 36 
1444 193 39 
1445 193 42 
1446 193 46 
1447 193 53 
1448 194 107 
1449 194 11 
1450 194 114 
1451 194 119 
1452 194 138 
1453 194 159 
1454 194 167 
1455 194 171 
1456 194 178 
1457 194 187 
1458 194 191 
1459 194 195 
1460 194 22 
1461 194 28 
1462 194 36 
1463 194 40 
1464 194 44 
1465 194 53 
1466 194 69 
1467 195 100 
1468 195 107 
1469 195 11 
1470 195 114 
1471 195 119 
1472 195 134 
1473 195 138 
1474 195 152 
1475 195 159 
1476 195 166 
1477 195 171 
1478 195 178 
1479 195 186 
1480 195 195 
1481 195 199 
1482 195 22 
1483 195 29 
1484 195 37 
1485 195 48 
1486 195 5 
1487 195 50 
1488 195 53 
1489 195 69 
1490 195 81 
1491 196 107 
1492 196 171 
1493 196 181 
1494 196 22 
1495 196 53 
1496 196 83 
1497 199 110 
1498 199 12 
1499 199 14 
1500 199 153 
1501 199 16 
1502 199 160 
1503 199 162 
1504 199 164 
1505 199 168 
1506 199 174 
1507 199 18 
1508 199 184 
1509 199 188 
1510 199 192 
1511 199 196 
1512 199 198 
1513 199 20 
1514 199 41 
1515 199 45 
1516 199 49 
1517 199 56 
1518 199 6 
1519 199 62 
1520 199 68 
1521 199 70 
1522 199 82 
1523 200 139 
1524 201 156 
1525 201 9 
1526 202 108 
1527 202 110 
1528 202 111 
1529 202 112 
1530 202 135 
1531 202 172 
1532 202 174 
1533 202 175 
1534 202 176 
1535 202 23 
1536 202 24 
1537 202 26 
1538 202 27 
1539 202 28 
1540 202 31 
1541 202 32 
1542 202 34 
1543 202 35 
1544 202 36 
1545 202 54 
1546 202 56 
1547 202 58 
1548 202 60 
1549 202 62 
1550 202 64 
1551 202 66 
1552 202 67 
1553 202 76 
1554 203 0 
1555 203 212 
1556 209 100 
1557 209 102 
1558 209 108 
1559 209 110 
1560 209 113 
1561 209 121 
1562 209 125 
1563 209 126 
1564 209 127 
1565 209 130 
1566 209 150 
1567 209 155 
1568 209 159 
1569 209 161 
1570 209 164 
1571 209 166 
1572 209 187 
1573 209 189 
1574 209 191 
1575 209 193 
1576 209 196 
1577 209 200 
1578 209 22 
1579 209 30 
1580 209 32 
1581 209 34 
1582 209 36 
1583 209 39 
1584 209 40 
1585 209 43 
1586 209 45 
1587 209 48 
1588 209 52 
1589 209 54 
1590 209 57 
1591 209 59 
1592 209 6 
1593 209 62 
1594 209 64 
1595 209 66 
1596 209 69 
1597 209 73 
1598 209 75 
1599 209 76 
1600 209 78 
1601 209 80 
1602 209 82 
1603 209 85 
1604 209 92 
1605 209 94 
1606 209 96 
1607 209 98 
1608 212 0 
1609 212 101 
1610 212 106 
1611 212 109 
1612 212 113 
1613 212 115 
1614 212 130 
1615 212 135 
1616 212 141 
1617 212 147 
1618 212 153 
1619 212 155 
1620 212 157 
1621 212 160 
1622 212 182 
1623 212 187 
1624 212 189 
1625 212 191 
1626 212 193 
1627 212 200 
1628 212 203 
1629 212 205 
1630 212 212 
1631 212 27 
1632 212 31 
1633 212 35 
1634 212 39 
1635 212 41 
1636 212 44 
1637 212 48 
1638 212 52 
1639 212 54 
1640 212 58 
1641 212 62 
1642 212 64 
1643 212 66 
1644 212 72 
1645 212 75 
1646 212 78 
1647 212 81 
1648 212 86 
1649 212 90 
1650 212 93 
1651 212 98 
1652 215 68 
1653 216 107 
1654 216 132 
1655 216 158 
1656 216 179 
1657 216 29 
1658 216 42 
1659 216 56 
1660 216 68 
1661 216 73 
1662 216 76 
1663 216 79 
1664 216 91 
1665 216 96 
1666 216 99 
1667 217 107 
1668 217 112 
1669 217 129 
1670 217 132 
1671 217 154 
1672 217 158 
1673 217 179 
1674 217 186 
1675 217 199 
1676 217 29 
1677 217 40 
1678 217 42 
1679 217 51 
1680 217 56 
1681 217 61 
1682 217 68 
1683 217 73 
1684 217 76 
1685 217 79 
1686 217 85 
1687 217 91 
1688 217 96 
1689 217 99 
1690 218 104 
1691 218 107 
1692 218 112 
1693 218 12 
1694 218 129 
1695 218 132 
1696 218 154 
1697 218 158 
1698 218 172 
1699 218 179 
1700 218 186 
1701 218 199 
1702 218 202 
1703 218 25 
1704 218 29 
1705 218 40 
1706 218 42 
1707 218 51 
1708 218 56 
1709 218 61 
1710 218 68 
1711 218 73 
1712 218 76 
1713 218 79 
1714 218 85 
1715 218 91 
1716 218 96 
1717 218 99 
1718 219 132 
1719 219 179 
1720 219 68 
1721 219 87 
1722 222 113 
1723 222 115 
1724 222 130 
1725 222 135 
1726 222 141 
1727 222 147 
1728 222 153 
1729 222 155 
1730 222 157 
1731 222 182 
1732 222 187 
1733 222 189 
1734 222 191 
1735 222 193 
1736 222 200 
1737 222 203 
1738 222 205 
1739 222 41 
1740 222 52 
1741 222 54 
1742 222 62 
1743 222 64 
1744 222 66 
1745 222 86 
1746 222 90 
1747 224 126 
1748 224 127 
1749 224 164 
1750 224 166 
1751 224 196 
1752 224 6 
1753 225 121 
1754 225 133 
1755 225 135 
1756 225 137 
1757 225 139 
1758 225 141 
1759 225 143 
1760 225 145 
1761 225 147 
1762 225 149 
1763 225 151 
1764 225 152 
1765 225 180 
1766 225 182 
1767 225 183 
1768 225 184 
1769 225 22 
1770 225 70 
1771 225 71 
1772 226 212 
1773 237 0 
1774 237 212 
1775 249 11 
1776 249 111 
1777 249 131 
1778 249 151 
1779 249 171 
1780 249 191 
1781 249 31 
1782 249 51 
1783 249 71 
1784 249 91 
